experiment/data/hgs-res/Vrp-Set-X-n172/Vrp-Set-X-n172-hgs/0.hgs1.vrp
NAME : 0
COMMENT : CVRP Instance
TYPE : CVRP
DIMENSION : 172
EDGE_WEIGHT_TYPE : EUC_2D
CAPACITY : 161
NODE_COORD_SECTION
1	500.0	500.0
2	363.0	697.0
3	120.0	259.0
4	555.0	718.0
5	522.0	918.0
6	239.0	935.0
7	304.0	517.0
8	856.0	96.0
9	38.0	904.0
10	174.0	951.0
11	294.0	935.0
12	942.0	324.0
13	402.0	176.0
14	766.0	450.0
15	473.0	862.0
16	262.0	550.0
17	661.0	92.0
18	440.0	655.0
19	678.0	291.0
20	345.0	691.0
21	564.0	903.0
22	952.0	802.0
23	698.0	352.0
24	297.0	930.0
25	66.0	244.0
26	882.0	642.0
27	777.0	818.0
28	302.0	212.0
29	824.0	647.0
30	143.0	946.0
31	108.0	600.0
32	121.0	755.0
33	697.0	32.0
34	473.0	995.0
35	342.0	252.0
36	596.0	534.0
37	248.0	211.0
38	940.0	88.0
39	81.0	468.0
40	144.0	796.0
41	244.0	385.0
42	437.0	42.0
43	381.0	583.0
44	263.0	549.0
45	153.0	646.0
46	187.0	688.0
47	248.0	71.0
48	27.0	70.0
49	649.0	477.0
50	244.0	370.0
51	145.0	49.0
52	589.0	402.0
53	105.0	251.0
54	986.0	452.0
55	486.0	773.0
56	679.0	851.0
57	102.0	734.0
58	619.0	809.0
59	139.0	138.0
60	107.0	489.0
61	921.0	579.0
62	681.0	336.0
63	925.0	185.0
64	260.0	655.0
65	46.0	832.0
66	534.0	440.0
67	117.0	590.0
68	604.0	453.0
69	667.0	428.0
70	871.0	548.0
71	943.0	171.0
72	181.0	252.0
73	172.0	696.0
74	211.0	597.0
75	82.0	390.0
76	114.0	189.0
77	659.0	852.0
78	404.0	544.0
79	169.0	845.0
80	101.0	663.0
81	422.0	503.0
82	124.0	861.0
83	289.0	778.0
84	923.0	842.0
85	464.0	148.0
86	377.0	32.0
87	482.0	570.0
88	933.0	156.0
89	987.0	678.0
90	995.0	62.0
91	241.0	242.0
92	802.0	86.0
93	944.0	185.0
94	972.0	48.0
95	964.0	77.0
96	244.0	244.0
97	992.0	67.0
98	89.0	157.0
99	989.0	59.0
100	953.0	76.0
101	347.0	358.0
102	415.0	494.0
103	971.0	672.0
104	941.0	146.0
105	391.0	594.0
106	904.0	106.0
107	649.0	92.0
108	951.0	94.0
109	917.0	77.0
110	134.0	331.0
111	948.0	183.0
112	389.0	254.0
113	796.0	197.0
114	243.0	283.0
115	965.0	174.0
116	304.0	381.0
117	914.0	661.0
118	198.0	245.0
119	207.0	258.0
120	926.0	85.0
121	961.0	726.0
122	881.0	145.0
123	849.0	115.0
124	923.0	678.0
125	577.0	535.0
126	266.0	216.0
127	160.0	154.0
128	890.0	105.0
129	368.0	725.0
130	563.0	538.0
131	509.0	502.0
132	921.0	174.0
133	819.0	266.0
134	324.0	181.0
135	500.0	580.0
136	435.0	652.0
137	470.0	524.0
138	460.0	344.0
139	917.0	630.0
140	843.0	747.0
141	355.0	700.0
142	969.0	653.0
143	956.0	76.0
144	470.0	464.0
145	940.0	704.0
146	982.0	738.0
147	998.0	704.0
148	416.0	492.0
149	215.0	222.0
150	992.0	115.0
151	433.0	446.0
152	354.0	552.0
153	884.0	204.0
154	439.0	345.0
155	472.0	663.0
156	980.0	116.0
157	494.0	573.0
158	51.0	27.0
159	934.0	44.0
160	930.0	835.0
161	216.0	30.0
162	862.0	251.0
163	267.0	215.0
164	212.0	71.0
165	941.0	68.0
166	918.0	719.0
167	554.0	709.0
168	602.0	591.0
169	936.0	725.0
170	428.0	536.0
171	405.0	594.0
172	629.0	450.0
DEMAND_SECTION
1	0
2	30
3	82
4	70
5	92
6	25
7	23
8	11
9	41
10	15
11	5
12	17
13	70
14	36
15	47
16	24
17	11
18	6
19	23
20	5
21	54
22	74
23	6
24	9
25	58
26	96
27	80
28	100
29	65
30	3
31	46
32	16
33	47
34	33
35	84
36	73
37	75
38	27
39	99
40	50
41	65
42	79
43	42
44	46
45	9
46	13
47	97
48	79
49	6
50	63
51	65
52	14
53	91
54	6
55	6
56	69
57	13
58	55
59	69
60	67
61	53
62	35
63	19
64	49
65	47
66	36
67	24
68	15
69	15
70	52
71	48
72	60
73	43
74	11
75	72
76	62
77	73
78	43
79	25
80	38
81	19
82	25
83	31
84	77
85	70
86	84
87	36
88	3
89	64
90	36
91	70
92	15
93	8
94	14
95	27
96	73
97	11
98	90
99	34
100	7
101	72
102	52
103	90
104	45
105	12
106	2
107	11
108	8
109	16
110	75
111	38
112	52
113	20
114	82
115	20
116	94
117	61
118	84
119	76
120	34
121	51
122	50
123	44
124	53
125	97
126	81
127	58
128	47
129	4
130	74
131	74
132	42
133	43
134	51
135	94
136	17
137	45
138	88
139	63
140	66
141	34
142	72
143	27
144	78
145	53
146	64
147	58
148	86
149	94
150	23
151	51
152	21
153	34
154	86
155	36
156	35
157	14
158	72
159	33
160	98
161	60
162	45
163	60
164	80
165	13
166	87
167	75
168	77
169	71
170	49
171	22
172	2
DEPOT_SECTION
1
-1
EOF
