experiment/data/hgs-res/Vrp-Set-X-n172/Vrp-Set-X-n172-hgs/0.hgs1.tour
Route #1: 147 101 80
Route #2: 74 59 151
Route #3: 38 24
Route #4: 40 115
Route #5: 109 2
Route #6: 113 49
Route #7: 75 52
Route #8: 117 118
Route #9: 148 71
Route #10: 58 97
Route #11: 143 150
Route #12: 157 47
Route #13: 90 95
Route #14: 36 125
Route #15: 162 27
Route #16: 163 50
Route #17: 153 100
Route #18: 111 133 126
Route #19: 160 46
Route #20: 34 12
Route #21: 84 85
Route #22: 65 137
Route #23: 106 16 32 41
Route #24: 121 127 122 112
Route #25: 91 7 108 164 99 142 107 37 119 105
Route #26: 158 93 98 89 96 94
Route #27: 51 18 161 132 61
Route #28: 152 87 103 155 149 114
Route #29: 22 62 92 110 70 131
Route #30: 67 171 13 69 60
Route #31: 145 146 53 11 68
Route #32: 48 138 141
Route #33: 88 102
Route #34: 28 25
Route #35: 124
Route #36: 123 144 120
Route #37: 168 165
Route #38: 129 130
Route #39: 159 116
Route #40: 35 167
Route #41: 83 21
Route #42: 26 139
Route #43: 55 76
Route #44: 166 3
Route #45: 57 20 14
Route #46: 54 4 33 17 135
Route #47: 134 156 86
Route #48: 42 104 19 140 1 154
Route #49: 31 64 8 29 9 5 10 23
Route #50: 128 82 78 81 39 56 45
Route #51: 169 77 170 136
Route #52: 66 30 79 44 72
Route #53: 63 73 15 43 6
Cost 45612.1
